10J3M/DAT/10J3MNNL-10.dat
10 3
23.0381 23.0381
28.7217 28.7217
24.4152 24.4152
30.1496 30.1496
25.1073 25.1073
23.8568 23.8568
25.9668 25.9668
23.1905 23.1905
28.0606 28.0606
20.0139 20.0139
252.5205