10J3M/SOL/10J3MNNL-10.sol
solution status: optimal solution found
objective value:                     84.5808333333333
x#1#1                               0.725418570318299 	(obj:0)
x#1#2                               0.274581429681701 	(obj:0)
x#2#3                                               1 	(obj:0)
x#3#3                                               1 	(obj:0)
x#4#2                                               1 	(obj:0)
x#5#1                               0.419738677965599 	(obj:0)
x#5#3                               0.580261322034401 	(obj:0)
x#6#2                                               1 	(obj:0)
x#7#1                                               1 	(obj:0)
x#8#1                                               1 	(obj:0)
x#9#2                                               1 	(obj:0)
x#10#3                                              1 	(obj:0)
z                                    84.5808333333333 	(obj:1)
